9268.0
1 1 1 1 1 1 1 1 0 1 
3 6 3 0 2 1 5 5 3 7 7 4 6 9 9 9 9 5 5 3 6 0 0 4 0 4 3 4 4 7 7 7 3 3 3 5 1 9 0 6 0 9 9 9 5 5 5 5 5 3 3 5 6 0 0 0 6 6 2 2 9 7 7 7 3 3 0 4 7 7 3 6 6 0 0 4 4 3 3 4 3 5 2 2 2 2 1 7 2 7 9 1 2 2 1 1 1 9 1 1 